(declare-fun N () Int)
(declare-fun i_inv () Int)
(declare-fun j () Int)
(declare-fun j_0 () Int)
(declare-fun j_1 () Int)
(declare-fun k_0 () Int)
(declare-fun k_1 () Int)

(assert (and
  (forall ((j_0 Int) (j_1 Int))
    (or
      (and
        (or
          (not (= (- N i_inv) (- (- N 1) (+ i_inv 1))))
          (not (= (- j_0 1) j_1))
        )
        (or
          (not (= j_0 (- j_1 1)))
          (not (= (- (- N 1) i_inv) (- (- N 1) (+ i_inv 1))))
        )
        (or
          (not (= (- (- N 1) i_inv) (- (- N 1) (+ i_inv 1))))
          (not (= j_0 j_1))
        )
      )
      (not (<= j_0 (- N 1)))
      (not (<= 1 j_1))
      (not (<= (- N (+ i_inv 1)) j_1))
      (not (<= j_1 (- N 1)))
      (not (<= 1 j_0))
      (not (<= (- j_0 1) (- (- N 1) i_inv)))
      (not (<= (- N i_inv) j_0))
      (not (< (- N i_inv) N))
    )
  )
  (forall ((j_0 Int) (j_1 Int))
    (or
      (not (< (- N (+ i_inv 1)) N))
      (not (<= j_0 (- N 1)))
      (not (<= (- N (+ i_inv 1)) j_1))
      (not (<= j_1 (- N 1)))
      (not (<= 1 j_0))
      (not (<= (- j_0 1) (- (- N 1) i_inv)))
      (not (<= (- N i_inv) j_0))
      (and
        (or
          (not (= (- N i_inv) (- (- N 1) (+ i_inv 1))))
          (not (= (- j_0 1) j_1))
        )
        (or
          (not (= (- (- N 1) i_inv) (- N (+ i_inv 1))))
          (not (= j_0 j_1))
        )
        (or
          (not (= (- (- N 1) i_inv) (- (- N 1) (+ i_inv 1))))
          (not (= j_0 j_1))
        )
      )
      (not (< (- N i_inv) N))
    )
  )
  (forall ((j_0 Int) (j_1 Int))
    (or
      (not (< (- N (+ i_inv 1)) N))
      (not (<= j_0 (- N 1)))
      (not (<= 1 j_1))
      (not (<= (- N (+ i_inv 1)) j_1))
      (not (<= j_1 (- N 1)))
      (not (<= 1 j_0))
      (not (<= (- j_0 1) (- (- N 1) i_inv)))
      (not (<= (- N i_inv) j_0))
      (not (< (- (- N 1) (+ i_inv 1)) (- j_1 1)))
      (not (< (- N i_inv) N))
      (and
        (or
          (not (= j_0 (- j_1 1)))
          (not (= (- (- N 1) i_inv) (- N (+ i_inv 1))))
        )
        (or
          (not (= (- N i_inv) (- (- N 1) (+ i_inv 1))))
          (not (= (- j_0 1) j_1))
        )
        (or
          (not (= (- (- N 1) i_inv) (- (- N 1) (+ i_inv 1))))
          (not (= j_0 j_1))
        )
      )
    )
  )
  (forall ((j_0 Int) (j_1 Int))
    (or
      (not (< (- N (+ i_inv 1)) N))
      (not (<= j_0 (- N 1)))
      (not (<= 1 j_1))
      (not (<= (- N (+ i_inv 1)) j_1))
      (not (<= j_1 (- N 1)))
      (not (<= 1 j_0))
      (not (<= (- j_0 1) (- (- N 1) i_inv)))
      (not (<= (- N i_inv) j_0))
      (not (< (- N i_inv) N))
      (and
        (or
          (not (= j_0 (- j_1 1)))
          (not (= (- (- N 1) i_inv) (- N (+ i_inv 1))))
        )
        (or
          (not (= (- N i_inv) (- (- N 1) (+ i_inv 1))))
          (not (= (- j_0 1) j_1))
        )
        (or
          (not (= (- (- N 1) i_inv) (- (- N 1) (+ i_inv 1))))
          (not (= j_0 j_1))
        )
      )
      (not (<= (- j_1 1) (- (- N 1) (+ i_inv 1))))
    )
  )
  (and
    (<= (- N i_inv) k_0)
    (<= j_0 (- N 1))
    (<= (- N (+ i_inv 1)) j_1)
    (<= j_1 (- N 1))
    (<= (- N i_inv) j_0)
    (<= k_0 (- j 1))
    (<= 1 (- N 1))
    (<= (- N (+ i_inv 1)) k_1)
    (<= k_1 (- j 1))
    (<= 0 i_inv)
    (<= (+ i_inv 1) (- N 1))
  )
  (forall ((j_0 Int) (j_1 Int) (k_0 Int) (k_1 Int))
    (or
      (not (<= j_0 (- N 1)))
      (not (<= (- N (+ i_inv 1)) j_1))
      (not (<= j_1 (- N 1)))
      (not (<= (- N i_inv) j_0))
      (not (<= k_0 (- j 1)))
      (not (<= (- N (+ i_inv 1)) k_1))
      (not (<= k_1 (- j 1)))
      (not (<= (- N i_inv) k_0))
      (and
        (or
          (not (= j_0 j_1))
          (not (= (+ k_0 1) (- (- N 1) (+ i_inv 1))))
        )
        (or
          (not (= j_0 j_1))
          (not (= (- (- N 1) i_inv) (+ k_1 1)))
        )
        (or
          (not (= k_0 j_1))
          (not (= (- (- N 1) i_inv) (- (- N 1) (+ i_inv 1))))
        )
        (or
          (not (= j_0 k_1))
          (not (= (- (- N 1) i_inv) (- (- N 1) (+ i_inv 1))))
        )
        (or
          (not (= (- (- N 1) i_inv) (- (- N 1) (+ i_inv 1))))
          (not (= j_0 j_1))
        )
      )
    )
  )
  (forall ((j_0 Int) (j_1 Int) (k_0 Int))
    (or
      (not (< (- N (+ i_inv 1)) N))
      (and
        (or
          (not (= j_0 (- j_1 1)))
          (not (= (- (- N 1) i_inv) (- N (+ i_inv 1))))
        )
        (or
          (not (= j_0 j_1))
          (not (= (+ k_0 1) (- (- N 1) (+ i_inv 1))))
        )
        (or
          (not (= k_0 j_1))
          (not (= (- (- N 1) i_inv) (- (- N 1) (+ i_inv 1))))
        )
        (or
          (not (= (- (- N 1) i_inv) (- (- N 1) (+ i_inv 1))))
          (not (= j_0 j_1))
        )
      )
      (not (<= j_0 (- N 1)))
      (not (<= 1 j_1))
      (not (<= (- N (+ i_inv 1)) j_1))
      (not (<= j_1 (- N 1)))
      (not (<= (- N i_inv) j_0))
      (not (<= k_0 (- j 1)))
      (not (<= (- j_1 1) (- (- N 1) (+ i_inv 1))))
      (not (<= (- N i_inv) k_0))
    )
  )
  (forall ((j_0 Int) (j_1 Int) (k_0 Int))
    (or
      (not (< (- N (+ i_inv 1)) N))
      (and
        (or
          (not (= j_0 (- j_1 1)))
          (not (= (- (- N 1) i_inv) (- N (+ i_inv 1))))
        )
        (or
          (not (= j_0 j_1))
          (not (= (+ k_0 1) (- (- N 1) (+ i_inv 1))))
        )
        (or
          (not (= k_0 j_1))
          (not (= (- (- N 1) i_inv) (- (- N 1) (+ i_inv 1))))
        )
        (or
          (not (= (- (- N 1) i_inv) (- (- N 1) (+ i_inv 1))))
          (not (= j_0 j_1))
        )
      )
      (not (<= j_0 (- N 1)))
      (not (<= 1 j_1))
      (not (<= (- N (+ i_inv 1)) j_1))
      (not (<= j_1 (- N 1)))
      (not (< (- (- N 1) (+ i_inv 1)) (- j_1 1)))
      (not (<= (- N i_inv) j_0))
      (not (<= k_0 (- j 1)))
      (not (<= (- N i_inv) k_0))
    )
  )
  (forall ((j_0 Int) (j_1 Int))
    (or
      (and
        (or
          (not (= (- N i_inv) (- (- N 1) (+ i_inv 1))))
          (not (= j_0 j_1))
        )
        (or
          (not (= j_0 (- j_1 1)))
          (not (= (- (- N 1) i_inv) (- (- N 1) (+ i_inv 1))))
        )
        (or
          (not (= (- (- N 1) i_inv) (- (- N 1) (+ i_inv 1))))
          (not (= j_0 j_1))
        )
      )
      (not (<= j_0 (- N 1)))
      (not (<= 1 j_1))
      (not (<= (- N (+ i_inv 1)) j_1))
      (not (<= j_1 (- N 1)))
      (not (<= (- N i_inv) j_0))
      (not (< (- N i_inv) N))
    )
  )
  (forall ((j_0 Int) (j_1 Int) (k_0 Int))
    (or
      (not (< (- N (+ i_inv 1)) N))
      (not (<= j_0 (- N 1)))
      (and
        (or
          (not (= k_0 j_1))
          (not (= (- (- N 1) i_inv) (- (- N 1) (+ i_inv 1))))
        )
        (or
          (not (= j_0 j_1))
          (not (= (+ k_0 1) (- (- N 1) (+ i_inv 1))))
        )
        (or
          (not (= (- (- N 1) i_inv) (- N (+ i_inv 1))))
          (not (= j_0 j_1))
        )
        (or
          (not (= (- (- N 1) i_inv) (- (- N 1) (+ i_inv 1))))
          (not (= j_0 j_1))
        )
      )
      (not (<= (- N (+ i_inv 1)) j_1))
      (not (<= j_1 (- N 1)))
      (not (<= (- N i_inv) j_0))
      (not (<= k_0 (- j 1)))
      (not (<= (- N i_inv) k_0))
    )
  )
  (forall ((j_0 Int) (j_1 Int))
    (or
      (not (< (- N (+ i_inv 1)) N))
      (not (<= j_0 (- N 1)))
      (not (<= (- N (+ i_inv 1)) j_1))
      (not (<= j_1 (- N 1)))
      (and
        (or
          (not (= (- N i_inv) (- (- N 1) (+ i_inv 1))))
          (not (= j_0 j_1))
        )
        (or
          (not (= (- (- N 1) i_inv) (- N (+ i_inv 1))))
          (not (= j_0 j_1))
        )
        (or
          (not (= (- (- N 1) i_inv) (- (- N 1) (+ i_inv 1))))
          (not (= j_0 j_1))
        )
      )
      (not (<= (- N i_inv) j_0))
      (not (< (- N i_inv) N))
    )
  )
  (forall ((j_0 Int) (j_1 Int) (k_1 Int))
    (or
      (not (<= j_0 (- N 1)))
      (not (<= (- N (+ i_inv 1)) j_1))
      (not (<= j_1 (- N 1)))
      (not (<= 1 j_0))
      (not (<= (- j_0 1) (- (- N 1) i_inv)))
      (not (<= (- N i_inv) j_0))
      (not (< (- N i_inv) N))
      (not (<= (- N (+ i_inv 1)) k_1))
      (not (<= k_1 (- j 1)))
      (and
        (or
          (not (= (- N i_inv) (- (- N 1) (+ i_inv 1))))
          (not (= (- j_0 1) j_1))
        )
        (or
          (not (= j_0 j_1))
          (not (= (- (- N 1) i_inv) (+ k_1 1)))
        )
        (or
          (not (= j_0 k_1))
          (not (= (- (- N 1) i_inv) (- (- N 1) (+ i_inv 1))))
        )
        (or
          (not (= (- (- N 1) i_inv) (- (- N 1) (+ i_inv 1))))
          (not (= j_0 j_1))
        )
      )
    )
  )
  (forall ((j_0 Int) (j_1 Int) (k_0 Int))
    (or
      (not (<= j_0 (- N 1)))
      (not (<= 1 j_1))
      (not (<= (- N (+ i_inv 1)) j_1))
      (not (<= j_1 (- N 1)))
      (and
        (or
          (not (= k_0 j_1))
          (not (= (- (- N 1) i_inv) (- (- N 1) (+ i_inv 1))))
        )
        (or
          (not (= j_0 j_1))
          (not (= (+ k_0 1) (- (- N 1) (+ i_inv 1))))
        )
        (or
          (not (= j_0 (- j_1 1)))
          (not (= (- (- N 1) i_inv) (- (- N 1) (+ i_inv 1))))
        )
        (or
          (not (= (- (- N 1) i_inv) (- (- N 1) (+ i_inv 1))))
          (not (= j_0 j_1))
        )
      )
      (not (<= (- N i_inv) j_0))
      (not (<= k_0 (- j 1)))
      (not (<= (- N i_inv) k_0))
    )
  )
  (forall ((j_0 Int) (j_1 Int) (k_1 Int))
    (or
      (not (< (- (- N 1) i_inv) (- j_0 1)))
      (not (<= j_0 (- N 1)))
      (not (<= (- N (+ i_inv 1)) j_1))
      (not (<= 1 j_0))
      (not (<= j_1 (- N 1)))
      (not (<= (- N i_inv) j_0))
      (not (< (- N i_inv) N))
      (not (<= (- N (+ i_inv 1)) k_1))
      (not (<= k_1 (- j 1)))
      (and
        (or
          (not (= (- N i_inv) (- (- N 1) (+ i_inv 1))))
          (not (= (- j_0 1) j_1))
        )
        (or
          (not (= j_0 j_1))
          (not (= (- (- N 1) i_inv) (+ k_1 1)))
        )
        (or
          (not (= j_0 k_1))
          (not (= (- (- N 1) i_inv) (- (- N 1) (+ i_inv 1))))
        )
        (or
          (not (= (- (- N 1) i_inv) (- (- N 1) (+ i_inv 1))))
          (not (= j_0 j_1))
        )
      )
    )
  )
  (forall ((j_0 Int) (j_1 Int))
    (or
      (not (< (- N (+ i_inv 1)) N))
      (not (< (- (- N 1) i_inv) (- j_0 1)))
      (not (<= j_0 (- N 1)))
      (not (<= 1 j_1))
      (not (<= (- N (+ i_inv 1)) j_1))
      (not (<= j_1 (- N 1)))
      (not (<= 1 j_0))
      (not (<= (- N i_inv) j_0))
      (not (< (- N i_inv) N))
      (and
        (or
          (not (= j_0 (- j_1 1)))
          (not (= (- (- N 1) i_inv) (- N (+ i_inv 1))))
        )
        (or
          (not (= (- N i_inv) (- (- N 1) (+ i_inv 1))))
          (not (= (- j_0 1) j_1))
        )
        (or
          (not (= (- (- N 1) i_inv) (- (- N 1) (+ i_inv 1))))
          (not (= j_0 j_1))
        )
      )
      (not (<= (- j_1 1) (- (- N 1) (+ i_inv 1))))
    )
  )
  (forall ((j_0 Int) (j_1 Int))
    (or
      (not (< (- N (+ i_inv 1)) N))
      (not (<= j_0 (- N 1)))
      (not (<= 1 j_1))
      (not (<= (- N (+ i_inv 1)) j_1))
      (not (<= j_1 (- N 1)))
      (not (< (- (- N 1) (+ i_inv 1)) (- j_1 1)))
      (not (<= (- N i_inv) j_0))
      (not (< (- N i_inv) N))
      (and
        (or
          (not (= j_0 (- j_1 1)))
          (not (= (- (- N 1) i_inv) (- N (+ i_inv 1))))
        )
        (or
          (not (= (- N i_inv) (- (- N 1) (+ i_inv 1))))
          (not (= j_0 j_1))
        )
        (or
          (not (= (- (- N 1) i_inv) (- (- N 1) (+ i_inv 1))))
          (not (= j_0 j_1))
        )
      )
    )
  )
  (forall ((j_0 Int) (j_1 Int))
    (or
      (not (< (- N (+ i_inv 1)) N))
      (not (< (- (- N 1) i_inv) (- j_0 1)))
      (not (<= j_0 (- N 1)))
      (not (<= 1 j_1))
      (not (<= (- N (+ i_inv 1)) j_1))
      (not (<= j_1 (- N 1)))
      (not (<= 1 j_0))
      (not (< (- (- N 1) (+ i_inv 1)) (- j_1 1)))
      (not (<= (- N i_inv) j_0))
      (not (< (- N i_inv) N))
      (and
        (or
          (not (= j_0 (- j_1 1)))
          (not (= (- (- N 1) i_inv) (- N (+ i_inv 1))))
        )
        (or
          (not (= (- N i_inv) (- (- N 1) (+ i_inv 1))))
          (not (= (- j_0 1) j_1))
        )
        (or
          (not (= (- (- N 1) i_inv) (- (- N 1) (+ i_inv 1))))
          (not (= j_0 j_1))
        )
      )
    )
  )
  (forall ((j_0 Int) (j_1 Int))
    (or
      (not (< (- N (+ i_inv 1)) N))
      (not (<= j_0 (- N 1)))
      (not (<= 1 j_1))
      (not (<= (- N (+ i_inv 1)) j_1))
      (not (<= j_1 (- N 1)))
      (not (<= (- N i_inv) j_0))
      (not (< (- N i_inv) N))
      (and
        (or
          (not (= j_0 (- j_1 1)))
          (not (= (- (- N 1) i_inv) (- N (+ i_inv 1))))
        )
        (or
          (not (= (- N i_inv) (- (- N 1) (+ i_inv 1))))
          (not (= j_0 j_1))
        )
        (or
          (not (= (- (- N 1) i_inv) (- (- N 1) (+ i_inv 1))))
          (not (= j_0 j_1))
        )
      )
      (not (<= (- j_1 1) (- (- N 1) (+ i_inv 1))))
    )
  )
  (forall ((j_0 Int) (j_1 Int))
    (or
      (not (< (- N (+ i_inv 1)) N))
      (not (< (- (- N 1) i_inv) (- j_0 1)))
      (not (<= j_0 (- N 1)))
      (not (<= (- N (+ i_inv 1)) j_1))
      (not (<= j_1 (- N 1)))
      (not (<= 1 j_0))
      (and
        (or
          (not (= (- N i_inv) (- (- N 1) (+ i_inv 1))))
          (not (= (- j_0 1) j_1))
        )
        (or
          (not (= (- (- N 1) i_inv) (- N (+ i_inv 1))))
          (not (= j_0 j_1))
        )
        (or
          (not (= (- (- N 1) i_inv) (- (- N 1) (+ i_inv 1))))
          (not (= j_0 j_1))
        )
      )
      (not (<= (- N i_inv) j_0))
      (not (< (- N i_inv) N))
    )
  )
  (forall ((j_0 Int) (j_1 Int))
    (or
      (and
        (or
          (not (= (- N i_inv) (- (- N 1) (+ i_inv 1))))
          (not (= (- j_0 1) j_1))
        )
        (or
          (not (= j_0 (- j_1 1)))
          (not (= (- (- N 1) i_inv) (- (- N 1) (+ i_inv 1))))
        )
        (or
          (not (= (- (- N 1) i_inv) (- (- N 1) (+ i_inv 1))))
          (not (= j_0 j_1))
        )
      )
      (not (< (- (- N 1) i_inv) (- j_0 1)))
      (not (<= j_0 (- N 1)))
      (not (<= 1 j_1))
      (not (<= (- N (+ i_inv 1)) j_1))
      (not (<= j_1 (- N 1)))
      (not (<= 1 j_0))
      (not (<= (- N i_inv) j_0))
      (not (< (- N i_inv) N))
    )
  )
  (forall ((j_0 Int) (j_1 Int) (k_1 Int))
    (or
      (not (<= j_0 (- N 1)))
      (not (<= (- N (+ i_inv 1)) j_1))
      (not (<= j_1 (- N 1)))
      (not (<= (- N i_inv) j_0))
      (not (< (- N i_inv) N))
      (not (<= (- N (+ i_inv 1)) k_1))
      (not (<= k_1 (- j 1)))
      (and
        (or
          (not (= j_0 j_1))
          (not (= (- (- N 1) i_inv) (+ k_1 1)))
        )
        (or
          (not (= j_0 k_1))
          (not (= (- (- N 1) i_inv) (- (- N 1) (+ i_inv 1))))
        )
        (or
          (not (= (- (- N 1) i_inv) (- (- N 1) (+ i_inv 1))))
          (not (= j_0 j_1))
        )
        (or
          (not (= (- N i_inv) (- (- N 1) (+ i_inv 1))))
          (not (= j_0 j_1))
        )
      )
    )
  )
  (forall ((j_0 Int) (j_1 Int) (k_1 Int))
    (or
      (not (<= j_0 (- N 1)))
      (not (<= (- N (+ i_inv 1)) j_1))
      (not (<= j_1 (- N 1)))
      (not (<= 1 j_0))
      (not (<= (- N i_inv) j_0))
      (not (<= (- N (+ i_inv 1)) k_1))
      (not (<= k_1 (- j 1)))
      (and
        (or
          (not (= j_0 j_1))
          (not (= (- (- N 1) i_inv) (+ k_1 1)))
        )
        (or
          (not (= (- (- N 1) i_inv) (- (- N 1) (+ i_inv 1))))
          (not (= j_0 j_1))
        )
        (or
          (not (= j_0 k_1))
          (not (= (- (- N 1) i_inv) (- (- N 1) (+ i_inv 1))))
        )
        (or
          (not (= (- (- N 1) i_inv) (- (- N 1) (+ i_inv 1))))
          (not (= (- j_0 1) j_1))
        )
      )
    )
  )
  (forall ((j_0 Int) (j_1 Int))
    (or
      (not (< (- N (+ i_inv 1)) N))
      (not (<= j_0 (- N 1)))
      (not (<= 1 j_1))
      (not (<= (- N (+ i_inv 1)) j_1))
      (not (<= j_1 (- N 1)))
      (not (<= 1 j_0))
      (not (<= (- N i_inv) j_0))
      (not (<= (- j_1 1) (- (- N 1) (+ i_inv 1))))
      (and
        (or
          (not (= j_0 (- j_1 1)))
          (not (= (- (- N 1) i_inv) (- N (+ i_inv 1))))
        )
        (or
          (not (= (- (- N 1) i_inv) (- (- N 1) (+ i_inv 1))))
          (not (= j_0 j_1))
        )
        (or
          (not (= (- (- N 1) i_inv) (- (- N 1) (+ i_inv 1))))
          (not (= (- j_0 1) j_1))
        )
      )
    )
  )
  (forall ((j_0 Int) (j_1 Int))
    (or
      (not (< (- N (+ i_inv 1)) N))
      (not (<= j_0 (- N 1)))
      (not (<= 1 j_1))
      (not (<= (- N (+ i_inv 1)) j_1))
      (not (<= j_1 (- N 1)))
      (not (<= 1 j_0))
      (not (< (- (- N 1) (+ i_inv 1)) (- j_1 1)))
      (not (<= (- N i_inv) j_0))
      (and
        (or
          (not (= j_0 (- j_1 1)))
          (not (= (- (- N 1) i_inv) (- N (+ i_inv 1))))
        )
        (or
          (not (= (- (- N 1) i_inv) (- (- N 1) (+ i_inv 1))))
          (not (= j_0 j_1))
        )
        (or
          (not (= (- (- N 1) i_inv) (- (- N 1) (+ i_inv 1))))
          (not (= (- j_0 1) j_1))
        )
      )
    )
  )
  (forall ((j_0 Int) (j_1 Int))
    (or
      (not (< (- N (+ i_inv 1)) N))
      (and
        (or
          (not (= (- (- N 1) i_inv) (- (- N 1) (+ i_inv 1))))
          (not (= j_0 j_1))
        )
        (or
          (not (= (- (- N 1) i_inv) (- N (+ i_inv 1))))
          (not (= j_0 j_1))
        )
        (or
          (not (= (- (- N 1) i_inv) (- (- N 1) (+ i_inv 1))))
          (not (= (- j_0 1) j_1))
        )
      )
      (not (<= j_0 (- N 1)))
      (not (<= (- N (+ i_inv 1)) j_1))
      (not (<= j_1 (- N 1)))
      (not (<= 1 j_0))
      (not (<= (- N i_inv) j_0))
    )
  )
  (forall ((j_0 Int) (j_1 Int))
    (or
      (not (<= j_0 (- N 1)))
      (not (<= 1 j_1))
      (and
        (or
          (not (= (- (- N 1) i_inv) (- (- N 1) (+ i_inv 1))))
          (not (= j_0 j_1))
        )
        (or
          (not (= j_0 (- j_1 1)))
          (not (= (- (- N 1) i_inv) (- (- N 1) (+ i_inv 1))))
        )
        (or
          (not (= (- (- N 1) i_inv) (- (- N 1) (+ i_inv 1))))
          (not (= (- j_0 1) j_1))
        )
      )
      (not (<= (- N (+ i_inv 1)) j_1))
      (not (<= j_1 (- N 1)))
      (not (<= 1 j_0))
      (not (<= (- N i_inv) j_0))
    )
  )
))

(check-sat)